p cnf 200 1110
-101 -39 0
-101 49 0
-101 87 0
-101 97 0
-101 -7 0
-101 54 0
-101 64 0
-101 12 0
-101 -73 0
-101 -31 0
101 39 -49 -87 -97 7 -54 -64 -12 73 31 0
-102 93 0
-102 -58 0
-102 45 0
-102 10 0
-102 38 0
-102 33 0
-102 85 0
-102 -60 0
-102 -75 0
-102 69 0
102 -93 58 -45 -10 -38 -33 -85 60 75 -69 0
-103 17 0
-103 39 0
-103 33 0
-103 -68 0
-103 -80 0
-103 97 0
-103 79 0
-103 20 0
-103 -4 0
-103 -43 0
103 -17 -39 -33 68 80 -97 -79 -20 4 43 0
-104 -65 0
-104 37 0
-104 29 0
-104 -85 0
-104 24 0
-104 -100 0
-104 42 0
-104 -80 0
-104 20 0
-104 -76 0
104 65 -37 -29 85 -24 100 -42 80 -20 76 0
-105 -58 0
-105 3 0
-105 68 0
-105 32 0
-105 4 0
-105 88 0
-105 -18 0
-105 -15 0
-105 82 0
-105 -13 0
105 58 -3 -68 -32 -4 -88 18 15 -82 13 0
-106 -20 0
-106 2 0
-106 -90 0
-106 12 0
-106 -63 0
-106 40 0
-106 -79 0
-106 -82 0
-106 -18 0
-106 97 0
106 20 -2 90 -12 63 -40 79 82 18 -97 0
-107 -28 0
-107 96 0
-107 79 0
-107 -46 0
-107 -77 0
-107 20 0
-107 -32 0
-107 70 0
-107 47 0
-107 -44 0
107 28 -96 -79 46 77 -20 32 -70 -47 44 0
-108 92 0
-108 -97 0
-108 -4 0
-108 45 0
-108 3 0
-108 7 0
-108 -12 0
-108 -69 0
-108 77 0
-108 -100 0
108 -92 97 4 -45 -3 -7 12 69 -77 100 0
-109 25 0
-109 -33 0
-109 -23 0
-109 -10 0
-109 -55 0
-109 71 0
-109 63 0
-109 -97 0
-109 12 0
-109 -92 0
109 -25 33 23 10 55 -71 -63 97 -12 92 0
-110 13 0
-110 1 0
-110 56 0
-110 -63 0
-110 64 0
-110 -68 0
-110 -70 0
-110 -72 0
-110 92 0
-110 5 0
110 -13 -1 -56 63 -64 68 70 72 -92 -5 0
101 102 103 104 105 106 107 108 109 110 0
-111 -30 0
-111 -90 0
-111 14 0
-111 6 0
-111 -19 0
-111 -79 0
-111 70 0
-111 89 0
-111 -58 0
-111 9 0
111 30 90 -14 -6 19 79 -70 -89 58 -9 0
-112 42 0
-112 -58 0
-112 80 0
-112 -18 0
-112 33 0
-112 86 0
-112 -30 0
-112 -15 0
-112 -44 0
-112 -97 0
112 -42 58 -80 18 -33 -86 30 15 44 97 0
-113 -38 0
-113 50 0
-113 55 0
-113 32 0
-113 -87 0
-113 -97 0
-113 66 0
-113 -12 0
-113 96 0
-113 8 0
113 38 -50 -55 -32 87 97 -66 12 -96 -8 0
-114 -77 0
-114 -69 0
-114 45 0
-114 -67 0
-114 40 0
-114 59 0
-114 -8 0
-114 -73 0
-114 -23 0
-114 100 0
114 77 69 -45 67 -40 -59 8 73 23 -100 0
-115 -97 0
-115 -30 0
-115 27 0
-115 48 0
-115 6 0
-115 -58 0
-115 -91 0
-115 -11 0
-115 -94 0
-115 47 0
115 97 30 -27 -48 -6 58 91 11 94 -47 0
-116 28 0
-116 -42 0
-116 -5 0
-116 -2 0
-116 68 0
-116 93 0
-116 -35 0
-116 -21 0
-116 45 0
-116 -46 0
116 -28 42 5 2 -68 -93 35 21 -45 46 0
-117 -68 0
-117 10 0
-117 3 0
-117 -24 0
-117 2 0
-117 90 0
-117 50 0
-117 48 0
-117 14 0
-117 46 0
117 68 -10 -3 24 -2 -90 -50 -48 -14 -46 0
-118 24 0
-118 -64 0
-118 -65 0
-118 -57 0
-118 -32 0
-118 -62 0
-118 -40 0
-118 100 0
-118 -9 0
-118 -44 0
118 -24 64 65 57 32 62 40 -100 9 44 0
-119 96 0
-119 92 0
-119 -46 0
-119 79 0
-119 -38 0
-119 95 0
-119 24 0
-119 31 0
-119 91 0
-119 -3 0
119 -96 -92 46 -79 38 -95 -24 -31 -91 3 0
-120 -88 0
-120 40 0
-120 -17 0
-120 -25 0
-120 32 0
-120 -92 0
-120 3 0
-120 67 0
-120 -2 0
-120 -94 0
120 88 -40 17 25 -32 92 -3 -67 2 94 0
111 112 113 114 115 116 117 118 119 120 0
-121 27 0
-121 25 0
-121 63 0
-121 -33 0
-121 -28 0
-121 -34 0
-121 -49 0
-121 19 0
-121 53 0
-121 24 0
121 -27 -25 -63 33 28 34 49 -19 -53 -24 0
-122 2 0
-122 -1 0
-122 20 0
-122 60 0
-122 23 0
-122 54 0
-122 86 0
-122 -24 0
-122 -92 0
-122 48 0
122 -2 1 -20 -60 -23 -54 -86 24 92 -48 0
-123 97 0
-123 -65 0
-123 -25 0
-123 -73 0
-123 -96 0
-123 75 0
-123 -58 0
-123 20 0
-123 23 0
-123 4 0
123 -97 65 25 73 96 -75 58 -20 -23 -4 0
-124 51 0
-124 57 0
-124 52 0
-124 96 0
-124 29 0
-124 8 0
-124 -35 0
-124 -27 0
-124 -74 0
-124 -1 0
124 -51 -57 -52 -96 -29 -8 35 27 74 1 0
-125 -82 0
-125 -64 0
-125 40 0
-125 47 0
-125 -16 0
-125 35 0
-125 -95 0
-125 79 0
-125 -5 0
-125 80 0
125 82 64 -40 -47 16 -35 95 -79 5 -80 0
-126 -97 0
-126 37 0
-126 49 0
-126 22 0
-126 -65 0
-126 95 0
-126 80 0
-126 12 0
-126 -48 0
-126 -60 0
126 97 -37 -49 -22 65 -95 -80 -12 48 60 0
-127 -44 0
-127 82 0
-127 45 0
-127 86 0
-127 22 0
-127 -69 0
-127 53 0
-127 63 0
-127 -3 0
-127 46 0
127 44 -82 -45 -86 -22 69 -53 -63 3 -46 0
-128 11 0
-128 -31 0
-128 68 0
-128 -7 0
-128 58 0
-128 -44 0
-128 26 0
-128 13 0
-128 1 0
-128 21 0
128 -11 31 -68 7 -58 44 -26 -13 -1 -21 0
-129 14 0
-129 30 0
-129 -81 0
-129 -35 0
-129 97 0
-129 -68 0
-129 -51 0
-129 -38 0
-129 -65 0
-129 59 0
129 -14 -30 81 35 -97 68 51 38 65 -59 0
-130 -29 0
-130 -87 0
-130 98 0
-130 47 0
-130 89 0
-130 -79 0
-130 81 0
-130 36 0
-130 -69 0
-130 59 0
130 29 87 -98 -47 -89 79 -81 -36 69 -59 0
121 122 123 124 125 126 127 128 129 130 0
-131 -52 0
-131 -69 0
-131 62 0
-131 -31 0
-131 53 0
-131 -16 0
-131 49 0
-131 -59 0
-131 88 0
-131 -3 0
131 52 69 -62 31 -53 16 -49 59 -88 3 0
-132 -50 0
-132 -38 0
-132 85 0
-132 74 0
-132 90 0
-132 -53 0
-132 -75 0
-132 -21 0
-132 -60 0
-132 -24 0
132 50 38 -85 -74 -90 53 75 21 60 24 0
-133 -16 0
-133 -46 0
-133 85 0
-133 -77 0
-133 -48 0
-133 -51 0
-133 -40 0
-133 -10 0
-133 -11 0
-133 -81 0
133 16 46 -85 77 48 51 40 10 11 81 0
-134 -42 0
-134 -56 0
-134 73 0
-134 85 0
-134 74 0
-134 -18 0
-134 88 0
-134 -82 0
-134 29 0
-134 -17 0
134 42 56 -73 -85 -74 18 -88 82 -29 17 0
-135 30 0
-135 -45 0
-135 -23 0
-135 34 0
-135 -18 0
-135 79 0
-135 -24 0
-135 94 0
-135 35 0
-135 22 0
135 -30 45 23 -34 18 -79 24 -94 -35 -22 0
-136 -76 0
-136 -13 0
-136 60 0
-136 8 0
-136 79 0
-136 -63 0
-136 -37 0
-136 53 0
-136 -56 0
-136 -22 0
136 76 13 -60 -8 -79 63 37 -53 56 22 0
-137 64 0
-137 -49 0
-137 29 0
-137 -44 0
-137 28 0
-137 -47 0
-137 61 0
-137 -77 0
-137 -97 0
-137 39 0
137 -64 49 -29 44 -28 47 -61 77 97 -39 0
-138 -73 0
-138 -79 0
-138 -29 0
-138 -33 0
-138 -19 0
-138 40 0
-138 96 0
-138 -71 0
-138 -46 0
-138 -47 0
138 73 79 29 33 19 -40 -96 71 46 47 0
-139 -44 0
-139 -9 0
-139 -91 0
-139 -14 0
-139 69 0
-139 92 0
-139 -60 0
-139 -41 0
-139 82 0
-139 -94 0
139 44 9 91 14 -69 -92 60 41 -82 94 0
-140 36 0
-140 -57 0
-140 70 0
-140 28 0
-140 76 0
-140 33 0
-140 -35 0
-140 64 0
-140 -16 0
-140 56 0
140 -36 57 -70 -28 -76 -33 35 -64 16 -56 0
131 132 133 134 135 136 137 138 139 140 0
-141 -97 0
-141 -80 0
-141 -29 0
-141 -66 0
-141 75 0
-141 49 0
-141 60 0
-141 85 0
-141 -50 0
-141 57 0
141 97 80 29 66 -75 -49 -60 -85 50 -57 0
-142 69 0
-142 -21 0
-142 -76 0
-142 -51 0
-142 47 0
-142 83 0
-142 22 0
-142 -55 0
-142 -36 0
-142 42 0
142 -69 21 76 51 -47 -83 -22 55 36 -42 0
-143 -100 0
-143 21 0
-143 33 0
-143 -16 0
-143 -56 0
-143 -92 0
-143 -80 0
-143 69 0
-143 36 0
-143 47 0
143 100 -21 -33 16 56 92 80 -69 -36 -47 0
-144 12 0
-144 -34 0
-144 78 0
-144 -19 0
-144 -27 0
-144 32 0
-144 -23 0
-144 -63 0
-144 95 0
-144 30 0
144 -12 34 -78 19 27 -32 23 63 -95 -30 0
-145 -41 0
-145 38 0
-145 -49 0
-145 -21 0
-145 90 0
-145 8 0
-145 -37 0
-145 -51 0
-145 75 0
-145 -33 0
145 41 -38 49 21 -90 -8 37 51 -75 33 0
-146 63 0
-146 -99 0
-146 58 0
-146 -60 0
-146 -11 0
-146 95 0
-146 59 0
-146 -32 0
-146 -69 0
-146 -22 0
146 -63 99 -58 60 11 -95 -59 32 69 22 0
-147 -24 0
-147 -37 0
-147 -34 0
-147 29 0
-147 69 0
-147 84 0
-147 32 0
-147 -81 0
-147 -43 0
-147 19 0
147 24 37 34 -29 -69 -84 -32 81 43 -19 0
-148 97 0
-148 51 0
-148 -92 0
-148 81 0
-148 80 0
-148 98 0
-148 -69 0
-148 39 0
-148 -6 0
-148 -32 0
148 -97 -51 92 -81 -80 -98 69 -39 6 32 0
-149 10 0
-149 -4 0
-149 -34 0
-149 -5 0
-149 42 0
-149 68 0
-149 -73 0
-149 -98 0
-149 -55 0
-149 78 0
149 -10 4 34 5 -42 -68 73 98 55 -78 0
-150 2 0
-150 26 0
-150 -85 0
-150 50 0
-150 -70 0
-150 32 0
-150 56 0
-150 82 0
-150 5 0
-150 23 0
150 -2 -26 85 -50 70 -32 -56 -82 -5 -23 0
141 142 143 144 145 146 147 148 149 150 0
-151 -66 0
-151 -90 0
-151 -63 0
-151 74 0
-151 75 0
-151 68 0
-151 14 0
-151 -32 0
-151 -59 0
-151 35 0
151 66 90 63 -74 -75 -68 -14 32 59 -35 0
-152 -1 0
-152 52 0
-152 -84 0
-152 -23 0
-152 100 0
-152 -36 0
-152 -51 0
-152 -74 0
-152 34 0
-152 32 0
152 1 -52 84 23 -100 36 51 74 -34 -32 0
-153 -40 0
-153 -46 0
-153 47 0
-153 33 0
-153 25 0
-153 -20 0
-153 -96 0
-153 14 0
-153 -16 0
-153 26 0
153 40 46 -47 -33 -25 20 96 -14 16 -26 0
-154 -29 0
-154 26 0
-154 68 0
-154 69 0
-154 25 0
-154 12 0
-154 67 0
-154 2 0
-154 -81 0
-154 9 0
154 29 -26 -68 -69 -25 -12 -67 -2 81 -9 0
-155 34 0
-155 -89 0
-155 -82 0
-155 21 0
-155 -58 0
-155 -45 0
-155 -78 0
-155 -17 0
-155 33 0
-155 40 0
155 -34 89 82 -21 58 45 78 17 -33 -40 0
-156 26 0
-156 42 0
-156 -79 0
-156 -9 0
-156 -46 0
-156 96 0
-156 65 0
-156 -73 0
-156 -22 0
-156 -67 0
156 -26 -42 79 9 46 -96 -65 73 22 67 0
-157 72 0
-157 -28 0
-157 46 0
-157 85 0
-157 -62 0
-157 94 0
-157 -7 0
-157 -38 0
-157 88 0
-157 26 0
157 -72 28 -46 -85 62 -94 7 38 -88 -26 0
-158 8 0
-158 22 0
-158 34 0
-158 -28 0
-158 5 0
-158 -2 0
-158 18 0
-158 -40 0
-158 -67 0
-158 63 0
158 -8 -22 -34 28 -5 2 -18 40 67 -63 0
-159 32 0
-159 -21 0
-159 -53 0
-159 76 0
-159 70 0
-159 -98 0
-159 -72 0
-159 43 0
-159 9 0
-159 75 0
159 -32 21 53 -76 -70 98 72 -43 -9 -75 0
-160 19 0
-160 -48 0
-160 -10 0
-160 73 0
-160 -51 0
-160 33 0
-160 -50 0
-160 -37 0
-160 -24 0
-160 92 0
160 -19 48 10 -73 51 -33 50 37 24 -92 0
151 152 153 154 155 156 157 158 159 160 0
-161 -56 0
-161 58 0
-161 44 0
-161 -95 0
-161 13 0
-161 -25 0
-161 75 0
-161 -69 0
-161 31 0
-161 94 0
161 56 -58 -44 95 -13 25 -75 69 -31 -94 0
-162 -41 0
-162 -67 0
-162 -33 0
-162 -60 0
-162 -20 0
-162 -40 0
-162 -11 0
-162 62 0
-162 -10 0
-162 27 0
162 41 67 33 60 20 40 11 -62 10 -27 0
-163 35 0
-163 -34 0
-163 -30 0
-163 -83 0
-163 57 0
-163 -61 0
-163 17 0
-163 80 0
-163 16 0
-163 -3 0
163 -35 34 30 83 -57 61 -17 -80 -16 3 0
-164 30 0
-164 17 0
-164 34 0
-164 -81 0
-164 -94 0
-164 -52 0
-164 43 0
-164 -33 0
-164 -39 0
-164 91 0
164 -30 -17 -34 81 94 52 -43 33 39 -91 0
-165 86 0
-165 -63 0
-165 40 0
-165 30 0
-165 46 0
-165 -7 0
-165 11 0
-165 -38 0
-165 -2 0
-165 -92 0
165 -86 63 -40 -30 -46 7 -11 38 2 92 0
-166 -86 0
-166 -95 0
-166 72 0
-166 99 0
-166 34 0
-166 -83 0
-166 33 0
-166 93 0
-166 -90 0
-166 100 0
166 86 95 -72 -99 -34 83 -33 -93 90 -100 0
-167 -63 0
-167 36 0
-167 -25 0
-167 29 0
-167 -33 0
-167 -45 0
-167 -19 0
-167 -5 0
-167 86 0
-167 -91 0
167 63 -36 25 -29 33 45 19 5 -86 91 0
-168 -3 0
-168 53 0
-168 98 0
-168 94 0
-168 -91 0
-168 -62 0
-168 55 0
-168 -49 0
-168 50 0
-168 -76 0
168 3 -53 -98 -94 91 62 -55 49 -50 76 0
-169 85 0
-169 -76 0
-169 40 0
-169 64 0
-169 90 0
-169 -49 0
-169 -58 0
-169 -55 0
-169 2 0
-169 -31 0
169 -85 76 -40 -64 -90 49 58 55 -2 31 0
-170 43 0
-170 -40 0
-170 99 0
-170 6 0
-170 11 0
-170 -85 0
-170 25 0
-170 -56 0
-170 91 0
-170 -98 0
170 -43 40 -99 -6 -11 85 -25 56 -91 98 0
161 162 163 164 165 166 167 168 169 170 0
-171 -69 0
-171 23 0
-171 42 0
-171 83 0
-171 68 0
-171 -95 0
-171 -11 0
-171 -52 0
-171 -47 0
-171 82 0
171 69 -23 -42 -83 -68 95 11 52 47 -82 0
-172 9 0
-172 13 0
-172 75 0
-172 82 0
-172 45 0
-172 -67 0
-172 81 0
-172 17 0
-172 76 0
-172 99 0
172 -9 -13 -75 -82 -45 67 -81 -17 -76 -99 0
-173 58 0
-173 -100 0
-173 55 0
-173 -13 0
-173 -76 0
-173 -8 0
-173 -50 0
-173 89 0
-173 -71 0
-173 -99 0
173 -58 100 -55 13 76 8 50 -89 71 99 0
-174 -77 0
-174 -60 0
-174 4 0
-174 -15 0
-174 -12 0
-174 63 0
-174 32 0
-174 85 0
-174 -68 0
-174 -35 0
174 77 60 -4 15 12 -63 -32 -85 68 35 0
-175 -77 0
-175 11 0
-175 -95 0
-175 35 0
-175 56 0
-175 18 0
-175 -75 0
-175 -28 0
-175 52 0
-175 20 0
175 77 -11 95 -35 -56 -18 75 28 -52 -20 0
-176 95 0
-176 -55 0
-176 -53 0
-176 11 0
-176 -40 0
-176 -14 0
-176 -43 0
-176 -24 0
-176 21 0
-176 58 0
176 -95 55 53 -11 40 14 43 24 -21 -58 0
-177 -74 0
-177 24 0
-177 -7 0
-177 -71 0
-177 -20 0
-177 -9 0
-177 -33 0
-177 -92 0
-177 -78 0
-177 -97 0
177 74 -24 7 71 20 9 33 92 78 97 0
-178 80 0
-178 -66 0
-178 72 0
-178 22 0
-178 35 0
-178 28 0
-178 -25 0
-178 -24 0
-178 8 0
-178 -69 0
178 -80 66 -72 -22 -35 -28 25 24 -8 69 0
-179 -45 0
-179 10 0
-179 41 0
-179 36 0
-179 81 0
-179 8 0
-179 20 0
-179 59 0
-179 50 0
-179 -17 0
179 45 -10 -41 -36 -81 -8 -20 -59 -50 17 0
-180 87 0
-180 12 0
-180 78 0
-180 74 0
-180 -36 0
-180 6 0
-180 -17 0
-180 54 0
-180 -92 0
-180 25 0
180 -87 -12 -78 -74 36 -6 17 -54 92 -25 0
171 172 173 174 175 176 177 178 179 180 0
-181 -72 0
-181 5 0
-181 98 0
-181 14 0
-181 -69 0
-181 50 0
-181 25 0
-181 -84 0
-181 -94 0
-181 58 0
181 72 -5 -98 -14 69 -50 -25 84 94 -58 0
-182 58 0
-182 -57 0
-182 -1 0
-182 59 0
-182 -11 0
-182 39 0
-182 15 0
-182 20 0
-182 -73 0
-182 -17 0
182 -58 57 1 -59 11 -39 -15 -20 73 17 0
-183 -68 0
-183 27 0
-183 94 0
-183 42 0
-183 26 0
-183 -34 0
-183 -29 0
-183 88 0
-183 75 0
-183 -72 0
183 68 -27 -94 -42 -26 34 29 -88 -75 72 0
-184 96 0
-184 -30 0
-184 -34 0
-184 -58 0
-184 37 0
-184 50 0
-184 9 0
-184 59 0
-184 49 0
-184 79 0
184 -96 30 34 58 -37 -50 -9 -59 -49 -79 0
-185 -85 0
-185 -1 0
-185 -99 0
-185 -32 0
-185 24 0
-185 -38 0
-185 -29 0
-185 -58 0
-185 -57 0
-185 -5 0
185 85 1 99 32 -24 38 29 58 57 5 0
-186 93 0
-186 22 0
-186 87 0
-186 53 0
-186 -14 0
-186 72 0
-186 -62 0
-186 -17 0
-186 84 0
-186 -56 0
186 -93 -22 -87 -53 14 -72 62 17 -84 56 0
-187 -76 0
-187 -41 0
-187 -74 0
-187 -32 0
-187 -49 0
-187 -37 0
-187 -27 0
-187 95 0
-187 -62 0
-187 -57 0
187 76 41 74 32 49 37 27 -95 62 57 0
-188 8 0
-188 -67 0
-188 9 0
-188 -99 0
-188 -11 0
-188 31 0
-188 79 0
-188 -12 0
-188 87 0
-188 58 0
188 -8 67 -9 99 11 -31 -79 12 -87 -58 0
-189 -69 0
-189 -27 0
-189 77 0
-189 -82 0
-189 -59 0
-189 84 0
-189 -24 0
-189 -85 0
-189 99 0
-189 -57 0
189 69 27 -77 82 59 -84 24 85 -99 57 0
-190 -1 0
-190 -67 0
-190 74 0
-190 -84 0
-190 -99 0
-190 69 0
-190 -81 0
-190 19 0
-190 72 0
-190 39 0
190 1 67 -74 84 99 -69 81 -19 -72 -39 0
181 182 183 184 185 186 187 188 189 190 0
-191 57 0
-191 -46 0
-191 -73 0
-191 40 0
-191 53 0
-191 -3 0
-191 6 0
-191 47 0
-191 20 0
-191 43 0
191 -57 46 73 -40 -53 3 -6 -47 -20 -43 0
-192 -62 0
-192 22 0
-192 89 0
-192 -49 0
-192 -57 0
-192 97 0
-192 -70 0
-192 29 0
-192 -69 0
-192 -37 0
192 62 -22 -89 49 57 -97 70 -29 69 37 0
-193 -4 0
-193 41 0
-193 -62 0
-193 21 0
-193 60 0
-193 56 0
-193 -96 0
-193 -33 0
-193 -83 0
-193 66 0
193 4 -41 62 -21 -60 -56 96 33 83 -66 0
-194 90 0
-194 -26 0
-194 -78 0
-194 -48 0
-194 -10 0
-194 -86 0
-194 30 0
-194 -62 0
-194 -57 0
-194 -34 0
194 -90 26 78 48 10 86 -30 62 57 34 0
-195 -21 0
-195 63 0
-195 -44 0
-195 -94 0
-195 95 0
-195 14 0
-195 89 0
-195 51 0
-195 -61 0
-195 76 0
195 21 -63 44 94 -95 -14 -89 -51 61 -76 0
-196 66 0
-196 -89 0
-196 -33 0
-196 27 0
-196 94 0
-196 16 0
-196 -28 0
-196 84 0
-196 -37 0
-196 71 0
196 -66 89 33 -27 -94 -16 28 -84 37 -71 0
-197 -13 0
-197 14 0
-197 24 0
-197 -7 0
-197 -16 0
-197 76 0
-197 -22 0
-197 -60 0
-197 100 0
-197 63 0
197 13 -14 -24 7 16 -76 22 60 -100 -63 0
-198 44 0
-198 -49 0
-198 -79 0
-198 -89 0
-198 -100 0
-198 54 0
-198 -98 0
-198 -45 0
-198 -25 0
-198 -20 0
198 -44 49 79 89 100 -54 98 45 25 20 0
-199 78 0
-199 89 0
-199 45 0
-199 -25 0
-199 32 0
-199 -95 0
-199 6 0
-199 39 0
-199 65 0
-199 79 0
199 -78 -89 -45 25 -32 95 -6 -39 -65 -79 0
-200 -49 0
-200 81 0
-200 57 0
-200 37 0
-200 -25 0
-200 -21 0
-200 71 0
-200 -91 0
-200 53 0
-200 -31 0
200 49 -81 -57 -37 25 21 -71 91 -53 31 0
191 192 193 194 195 196 197 198 199 200 0
